
Log started (V12.10.0.0) Fri Apr  9 00:25:58 2021


Problem 'asset.lp' read.
Read time = 0.00 sec. (0.13 ticks)
New value for default parallel thread count: 1
New value for time limit in seconds: 200
Version identifier: 12.10.0.0 | 2019-11-26 | 843d4de
CPXPARAM_Threads                                 1
CPXPARAM_TimeLimit                               200
Found incumbent of value -0.879034 after 0.00 sec. (0.06 ticks)
Tried aggregator 3 times.
MIP Presolve eliminated 514 rows and 323 columns.
MIP Presolve modified 1175 coefficients.
Aggregator did 326 substitutions.
Reduced MIP has 460 rows, 488 columns, and 2034 nonzeros.
Reduced MIP has 410 binaries, 48 generals, 0 SOSs, and 0 indicators.
Presolve time = 0.01 sec. (4.99 ticks)
Probing fixed 62 vars, tightened 3 bounds.
Probing time = 0.00 sec. (1.65 ticks)
Cover probing fixed 0 vars, tightened 34 bounds.
Tried aggregator 2 times.
MIP Presolve eliminated 71 rows and 69 columns.
MIP Presolve modified 139 coefficients.
Aggregator did 1 substitutions.
Reduced MIP has 388 rows, 418 columns, and 1633 nonzeros.
Reduced MIP has 343 binaries, 45 generals, 0 SOSs, and 0 indicators.
Presolve time = 0.00 sec. (2.12 ticks)
Probing time = 0.00 sec. (1.23 ticks)
Tried aggregator 1 time.
Detecting symmetries...
MIP Presolve modified 118 coefficients.
Reduced MIP has 388 rows, 418 columns, and 1633 nonzeros.
Reduced MIP has 343 binaries, 45 generals, 0 SOSs, and 0 indicators.
Presolve time = 0.00 sec. (1.10 ticks)
Probing time = 0.00 sec. (1.23 ticks)
Clique table members: 1165.
MIP emphasis: balance optimality and feasibility.
MIP search method: dynamic search.
Parallel mode: none, using 1 thread.
Root relaxation solution time = 0.00 sec. (2.92 ticks)

        Nodes                                         Cuts/
   Node  Left     Objective  IInf  Best Integer    Best Bound    ItCnt     Gap

*     0+    0                           -0.8790      318.8200              --- 
      0     0      259.4532    88       -0.8790      259.4532      277     --- 
      0     0      252.3825    88       -0.8790     Cuts: 167      390     --- 
      0     0      250.2501    88       -0.8790     Cuts: 152      486     --- 
      0     0      249.7163    88       -0.8790     Cuts: 162      558     --- 
      0     0      249.6141    88       -0.8790      Cuts: 86      603     --- 
      0     0      249.2217    88       -0.8790     Cuts: 104      716     --- 
Detecting symmetries...
      0     0      248.9522    88       -0.8790      Cuts: 56      798     --- 
      0     0      248.7117    88       -0.8790     Cuts: 105      844     --- 
      0     0      248.5814    88       -0.8790      Cuts: 58      875     --- 
      0     0      248.4606    88       -0.8790      Cuts: 29      903     --- 
      0     0      248.4002    88       -0.8790      Cuts: 33      931     --- 
      0     0      248.3700    88       -0.8790      Cuts: 16      961     --- 
      0     0      248.0567    88       -0.8790      Cuts: 29     1016     --- 
      0     0      247.5595    88       -0.8790      Cuts: 52     1066     --- 
      0     0      247.4847    88       -0.8790     Cuts: 110     1116     --- 
      0     0      247.4407    88       -0.8790      Cuts: 33     1145     --- 
      0     0      247.3822    88       -0.8790      Cuts: 52     1179     --- 
      0     0      247.2852    88       -0.8790      Cuts: 41     1223     --- 
      0     0      247.2406    88       -0.8790      Cuts: 45     1248     --- 
      0     0      247.2326    88       -0.8790      Cuts: 14     1275     --- 
*     0+    0                           27.0892      247.2326           812.66%
*     0+    0                           36.8679      247.2326           570.59%
Detecting symmetries...
      0     2      247.2326   156       36.8679      247.2279     1275  570.58%
Elapsed time = 0.17 sec. (155.07 ticks, tree = 0.01 MB, solutions = 2)
*    50+   30                          182.1313      244.6689            34.34%
*   140+   83                          182.8640      244.1197            33.50%
    226   152      226.5400    82      182.8640      243.0190     9209   32.90%
*   280+  175                          194.1046      242.8547            25.12%
*   380+  245                          194.1072      242.2312            24.79%
    386   249      234.3794   116      194.1072      241.8068    15298   24.57%
    535   341      215.3926    81      194.1072      240.5288    22327   23.92%
    683   420      209.1950    85      194.1072      237.6571    29999   22.44%
    843   534      213.2495    68      194.1072      236.3296    37565   21.75%
*   950+  603                          194.1080      235.1939            21.17%
    990   638      224.4432   122      194.1080      234.9033    45219   21.02%
*  1050+  679                          194.1082      234.3048            20.71%
*  1080+  680                          194.1881      233.5874            20.29%
*  1090+  690                          194.1909      233.5874            20.29%
   1171   734      224.9624    97      194.1909      232.6607    52940   19.81%
*  1190+  745                          194.1910      232.5365            19.75%
*  1246   685      integral     0      198.0320      231.0571    57900   16.68%
*  1346+  742                          198.0329      230.3738            16.33%
   1397   762      205.1215    61      198.0329      229.6839    64988   15.98%

Performing restart 1

Repeating presolve.
Tried aggregator 2 times.
MIP Presolve modified 229 coefficients.
Aggregator did 4 substitutions.
Reduced MIP has 384 rows, 414 columns, and 1450 nonzeros.
Reduced MIP has 339 binaries, 45 generals, 0 SOSs, and 0 indicators.
Presolve time = 0.00 sec. (1.77 ticks)
Tried aggregator 1 time.
Reduced MIP has 384 rows, 414 columns, and 1450 nonzeros.
Reduced MIP has 339 binaries, 45 generals, 0 SOSs, and 0 indicators.
Presolve time = 0.00 sec. (1.04 ticks)
Represolve time = 0.01 sec. (7.81 ticks)
   1456     0      227.8806   154      198.0329     Cuts: 161    68349   15.07%
   1456     0      223.9383   154      198.0329      Cuts: 98    68508   13.08%
   1456     0      221.7035   154      198.0329      Cuts: 79    68589   11.95%
   1456     0      219.2138   154      198.0329      Cuts: 59    68683   10.70%
   1456     0      217.7267   154      198.0329      Cuts: 40    68755    9.94%
   1456     0      217.1609   154      198.0329      Cuts: 47    68878    9.66%
   1456     0      216.8993   154      198.0329      Cuts: 62    68958    9.53%
   1456     0      216.3095   154      198.0329      Cuts: 63    69009    9.23%
   1456     0      215.8653   154      198.0329      Cuts: 49    69034    9.00%
   1456     0      215.7895   154      198.0329      Cuts: 30    69073    8.97%
   1456     0      215.6283   154      198.0329      Cuts: 25    69117    8.89%
   1456     0      215.5197   154      198.0329      Cuts: 23    69170    8.83%
   1456     0      215.4039   154      198.0329      Cuts: 30    69240    8.77%
   1456     0      215.3034   154      198.0329      Cuts: 30    69286    8.72%
   1456     0      215.0872   154      198.0329      Cuts: 28    69350    8.61%
   1456     0      214.8198   154      198.0329      Cuts: 40    69417    8.48%
   1456     0      214.7816   154      198.0329      Cuts: 20    69437    8.46%
   1456     0      214.7696   154      198.0329      Cuts: 14    69458    8.45%
   1456     0      214.7555   154      198.0329      Cuts: 11    69480    8.44%
   1456     0      214.7524   154      198.0329      Cuts: 24    69504    8.44%
   1456     0      214.7140   154      198.0329      Cuts: 19    69539    8.42%
   1456     0      214.6637   154      198.0329      Cuts: 19    69590    8.40%
   1456     0      214.6420   154      198.0329      Cuts: 26    69628    8.39%
   1478    12      205.1894    67      198.0329      205.3041    70823    3.67%
Elapsed time = 3.00 sec. (3205.78 ticks, tree = 0.03 MB, solutions = 13)
*  1506+   21                          198.8960      204.5208             2.83%
*  1516+   29                          198.8960      204.5208             2.83%

GUB cover cuts applied:  10
Clique cuts applied:  32
Cover cuts applied:  6
Implied bound cuts applied:  16
Flow cuts applied:  5
Mixed integer rounding cuts applied:  44
Zero-half cuts applied:  26
Lift and project cuts applied:  3
Gomory fractional cuts applied:  4

Root node processing (before b&c):
  Real time             =    0.17 sec. (155.20 ticks)
Sequential b&c:
  Real time             =    3.10 sec. (3377.03 ticks)
                          ------------
Total (root+branch&cut) =    3.28 sec. (3532.23 ticks)

Solution pool: 16 solutions saved.

MIP - Integer optimal, tolerance (0.0001/1e-06):  Objective =  1.9889599095e+02
Current MIP best bound =  1.9890161531e+02 (gap = 0.00562436, 0.00%)
Solution time =    3.28 sec.  Iterations = 74018  Nodes = 1605 (7)
Deterministic time = 3532.23 ticks  (1078.34 ticks/sec)


Incumbent solution
Variable Name           Solution Value
F                           205.000000
f1                            0.904009
f2                            5.200000
y78                           1.000000
y147                          1.000000
y177                          1.000000
y92                           1.000000
y196                          1.000000
y29                           1.000000
y75                           1.000000
y15                           1.000000
y34                           1.000000
y153                          1.000000
y88                           1.000000
y224                          1.000000
s17                           6.000000
s19                           6.000000
s31                           6.000000
s32                           6.000000
s40                           6.000000
s45                           6.000000
s72                           6.000000
s78                           6.621225
s110                          6.000000
s124                          6.000000
s135                          6.000000
s140                          6.000000
s144                          6.000000
s200                          6.000000
s203                          6.000000
s206                          6.000000
s28                           6.010000
s126                          6.080000
s147                          6.969424
s177                          6.358225
s234                          6.220000
s67                           6.370000
s148                          6.460000
s92                           6.549356
s196                          7.319686
s29                           7.835908
s183                          7.000000
s16                           7.010000
s3                            7.100000
s75                           7.498384
s15                           7.765547
s34                           7.365498
s153                          7.522051
s185                          7.200000
s88                           8.156566
s224                          8.110214
x103x15x1                     1.000000
x50x78x1                      1.000000
x86x196x1                     1.000000
x99x177x1                     1.000000
x99x92x1                      1.000000
x103x147x2                    1.000000
x134x34x2                     2.000000
x73x196x2                     1.000000
x50x78x2                      1.000000
x95x147x3                     1.000000
x95x153x3                     1.000000
x73x75x3                      1.000000
x86x153x3                     1.000000
x199x177x3                    1.000000
x199x92x3                     1.000000
x78x224x1                     1.000000
x78x29x2                      1.000000
x147x88x2                     1.000000
x147x88x3                     1.000000
x177x15x1                     1.000000
x177x75x3                     1.000000
x92x224x1                     1.000000
x92x29x3                      1.000000
x196x0x1                      1.000000
x196x0x2                      1.000000
x29x0x2                       1.000000
x29x0x3                       1.000000
x75x0x3                       2.000000
x15x0x1                       2.000000
x34x0x2                       2.000000
x153x0x3                      2.000000
x88x0x2                       1.000000
x88x0x3                       1.000000
x224x0x1                      2.000000
s95                           4.943942
z95z147z3                     1.000000
z95z75z3                      1.000000
z95z153z3                     1.000000
s103                          5.072784
z103z147z2                    1.000000
z103z15z1                     1.000000
s134                          5.158597
z134z34z2                     1.000000
s73                           5.398764
z73z196z2                     1.000000
z73z75z3                      1.000000
s50                           5.291431
z50z78z1                      1.000000
z50z78z2                      1.000000
z50z15z1                      1.000000
z50z34z2                      1.000000
z50z185z1                     1.000000
z50z224z1                     1.000000
s86                           5.708104
z86z196z1                     1.000000
z86z153z3                     1.000000
s99                           4.847100
z99z177z1                     1.000000
z99z92z1                      1.000000
z99z15z1                      1.000000
z99z185z1                     1.000000
z99z224z1                     1.000000
s199                          4.799160
z199z177z3                    1.000000
z199z92z3                     1.000000
z199z75z3                     1.000000
z199z153z3                    1.000000
z78z29z2                      1.000000
z78z224z1                     1.000000
z135z224z1                    1.000000
z203z75z3                     1.000000
z147z88z2                     1.000000
z147z88z3                     1.000000
z177z75z3                     1.000000
z177z15z1                     1.000000
z92z29z3                      1.000000
z92z224z1                     1.000000
All other variables in the range 1-1141 are 0.
